1 1 50 5
0 160
0 160
0 160
0 160
0 160
 0 30 40 0  0 0 0
 1 37 52 0  7 1 5 1 2 4 8 16
 2 49 49 0 30 1 5 1 2 4 8 16
 3 52 64 0 16 1 5 1 2 4 8 16
 4 20 26 0  9 1 5 1 2 4 8 16
 5 40 30 0 21 1 5 1 2 4 8 16
 6 21 47 0 15 1 5 1 2 4 8 16
 7 17 63 0 19 1 5 1 2 4 8 16
 8 31 62 0 23 1 5 1 2 4 8 16
 9 52 33 0 11 1 5 1 2 4 8 16
10 51 21 0  5 1 5 1 2 4 8 16
11 42 41 0 19 1 5 1 2 4 8 16
12 31 32 0 29 1 5 1 2 4 8 16
13  5 25 0 23 1 5 1 2 4 8 16
14 12 42 0 21 1 5 1 2 4 8 16
15 36 16 0 10 1 5 1 2 4 8 16
16 52 41 0 15 1 5 1 2 4 8 16
17 27 23 0  3 1 5 1 2 4 8 16
18 17 33 0 41 1 5 1 2 4 8 16
19 13 13 0  9 1 5 1 2 4 8 16
20 57 58 0 28 1 5 1 2 4 8 16
21 62 42 0  8 1 5 1 2 4 8 16
22 42 57 0  8 1 5 1 2 4 8 16
23 16 57 0 16 1 5 1 2 4 8 16
24  8 52 0 10 1 5 1 2 4 8 16
25  7 38 0 28 1 5 1 2 4 8 16
26 27 68 0  7 1 5 1 2 4 8 16
27 30 48 0 15 1 5 1 2 4 8 16
28 43 67 0 14 1 5 1 2 4 8 16
29 58 48 0  6 1 5 1 2 4 8 16
30 58 27 0 19 1 5 1 2 4 8 16
31 37 69 0 11 1 5 1 2 4 8 16
32 38 46 0 12 1 5 1 2 4 8 16
33 46 10 0 23 1 5 1 2 4 8 16
34 61 33 0 26 1 5 1 2 4 8 16
35 62 63 0 17 1 5 1 2 4 8 16
36 63 69 0  6 1 5 1 2 4 8 16
37 32 22 0  9 1 5 1 2 4 8 16
38 45 35 0 15 1 5 1 2 4 8 16
39 59 15 0 14 1 5 1 2 4 8 16
40  5  6 0  7 1 5 1 2 4 8 16
41 10 17 0 27 1 5 1 2 4 8 16
42 21 10 0 13 1 5 1 2 4 8 16
43  5 64 0 11 1 5 1 2 4 8 16
44 30 15 0 16 1 5 1 2 4 8 16
45 39 10 0 10 1 5 1 2 4 8 16
46 32 39 0  5 1 5 1 2 4 8 16
47 25 32 0 25 1 5 1 2 4 8 16
48 25 55 0 17 1 5 1 2 4 8 16
49 48 28 0 18 1 5 1 2 4 8 16
50 56 37 0 10 1 5 1 2 4 8 16
